NAME : ts225.139791.tour
COMMENT : Cost = 46759_139791
COMMENT : Found by LKH [Keld Helsgaun] Thu Nov 16 14:49:36 2017
TYPE : TOUR
DIMENSION : 227
TOUR_SECTION
1
27
52
53
54
55
56
181
182
183
184
185
82
81
80
79
78
209
208
207
206
83
84
85
86
87
88
211
212
213
214
215
117
116
115
114
113
112
111
110
109
108
210
107
106
105
104
103
102
101
205
204
203
202
201
77
76
180
179
178
177
176
51
155
154
153
152
151
26
130
129
128
127
126
226
132
133
134
135
32
33
34
35
36
37
161
162
163
164
165
64
65
66
67
68
69
191
192
193
194
195
95
96
97
98
99
200
100
221
222
223
224
225
125
124
123
122
121
120
119
118
220
219
218
217
216
94
93
92
91
90
89
190
189
188
187
186
63
62
61
60
59
58
57
160
159
158
157
156
31
30
29
28
227
2
3
4
5
6
7
8
9
10
11
12
13
14
15
16
17
18
141
19
20
21
22
23
24
25
146
147
148
149
150
49
50
171
172
173
174
175
75
196
197
198
199
74
73
72
71
70
170
169
168
167
166
45
46
47
48
142
143
144
145
44
43
42
41
40
39
38
140
139
138
137
136
131
-1
EOF
